
  22   10
  10   10   10   10   10   10   10   10   10   10

   0   0   0   0   0   0   0   0   0   0   0   2 2 4 
   1  10  10  10  10  10  10  10  10  10  10   2 6 3 
   4  10  10  10  10  10  10  10  10  10  10   1 5 
   6  10  10  10  10  10  10  10  10  10  10   1 5 
   4  10  10  10  10  10  10  10  10  10  10   2 8 7 
   1  10  10  10  10  10  10  10  10  10  10   5 14 13 12 11 10 
   7  10  10  10  10  10  10  10  10  10  10   3 13 11 9 
   7  10  10  10  10  10  10  10  10  10  10   3 14 13 12 
   5  10  10  10  10  10  10  10  10  10  10   2 14 10 
   1  10  10  10  10  10  10  10  10  10  10   3 21 19 15 
   3  10  10  10  10  10  10  10  10  10  10   3 20 19 15 
   5  10  10  10  10  10  10  10  10  10  10   3 21 19 16 
   4  10  10  10  10  10  10  10  10  10  10   2 19 15 
   8  10  10  10  10  10  10  10  10  10  10   3 20 19 18 
   5  10  10  10  10  10  10  10  10  10  10   1 16 
   5  10  10  10  10  10  10  10  10  10  10   1 17 
   1  10  10  10  10  10  10  10  10  10  10   1 18 
   9  10  10  10  10  10  10  10  10  10  10   1 22
   4  10  10  10  10  10  10  10  10  10  10   1 22
   4  10  10  10  10  10  10  10  10  10  10   1 22
   7  10  10  10  10  10  10  10  10  10  10   1 22
   0   0   0   0   0   0   0   0   0   0   0   0 
